% seed = 1854119

mint = 42;
% maxt = 115;

nActs = 22;
dur = [0,7,6,4,4,9,1,3,10,6,1,5,6,8,6,10,4,6,8,2,9,0];

nSkills = 4;
sreq = [| 0,0,0,0,
	| 2,2,0,3,
	| 0,1,1,1,
	| 0,3,1,1,
	| 2,0,2,2,
	| 2,0,1,1,
	| 3,0,1,2,
	| 1,2,2,0,
	| 1,2,0,2,
	| 3,0,2,1,
	| 3,0,3,3,
	| 0,2,1,3,
	| 0,1,2,1,
	| 3,2,0,2,
	| 0,2,3,2,
	| 0,2,1,2,
	| 2,2,1,0,
	| 3,0,1,3,
	| 0,2,2,2,
	| 3,3,0,2,
	| 0,3,3,3,
	| 0,0,0,0, |];

nResources = 20;
mastery = [| false,true,true,false,
	| false,false,true,true,
	| false,true,true,true,
	| false,false,true,true,
	| false,true,false,false,
	| true,false,true,true,
	| true,true,false,false,
	| true,true,false,true,
	| false,true,false,true,
	| false,false,false,true,
	| false,true,true,true,
	| true,true,true,false,
	| true,false,true,true,
	| false,false,false,true,
	| false,true,true,true,
	| false,true,true,true,
	| true,false,true,false,
	| true,false,false,true,
	| false,false,false,true,
	| true,true,false,true, |];

nPrecs = 43;
pred = [1,1,1,2,2,2,3,3,3,4,4,4,5,5,5,6,6,7,8,8,9,10,10,10,11,11,11,12,13,13,13,14,14,15,15,15,16,16,17,18,19,20,21];
succ = [2,3,4,11,7,15,5,7,8,10,6,7,10,13,15,9,20,21,9,13,16,12,14,16,17,19,12,18,17,14,16,18,21,17,18,19,19,21,20,20,22,22,22];

nUnrels = 94;
unpred = [2,2,2,2,2,2,2,2,2,2,3,3,3,4,4,4,4,4,4,5,5,5,5,5,6,6,6,6,6,6,6,6,6,6,7,7,7,7,7,7,7,7,7,7,7,7,7,8,8,8,8,9,9,9,9,9,9,9,9,9,10,10,10,10,11,11,11,11,11,12,12,12,12,12,12,12,13,14,14,14,14,15,15,16,16,16,17,17,17,18,18,19,19,20];
unsucc = [3,4,5,6,8,9,10,13,14,16,4,6,11,5,8,11,13,15,17,6,7,8,9,11,7,8,10,11,12,13,14,15,17,18,8,9,10,11,12,13,14,15,16,17,18,19,20,10,11,12,15,10,11,12,13,14,15,17,18,20,11,13,15,17,13,14,15,16,21,13,14,15,16,17,19,21,15,15,16,17,19,16,21,17,18,20,18,19,21,19,21,20,21,21];

USEFUL_RES = [{},
	{1,2,3,4,5,6,7,8,9,10,11,12,13,14,15,16,17,18,19,20},
	{1,2,3,4,5,6,7,8,9,10,11,12,13,14,15,16,17,18,19,20},
	{1,2,3,4,5,6,7,8,9,10,11,12,13,14,15,16,17,18,19,20},
	{1,2,3,4,6,7,8,9,10,11,12,13,14,15,16,17,18,19,20},
	{1,2,3,4,6,7,8,9,10,11,12,13,14,15,16,17,18,19,20},
	{1,2,3,4,6,7,8,9,10,11,12,13,14,15,16,17,18,19,20},
	{1,2,3,4,5,6,7,8,9,11,12,13,15,16,17,18,20},
	{1,2,3,4,5,6,7,8,9,10,11,12,13,14,15,16,17,18,19,20},
	{1,2,3,4,6,7,8,9,10,11,12,13,14,15,16,17,18,19,20},
	{1,2,3,4,6,7,8,9,10,11,12,13,14,15,16,17,18,19,20},
	{1,2,3,4,5,6,7,8,9,10,11,12,13,14,15,16,17,18,19,20},
	{1,2,3,4,5,6,7,8,9,10,11,12,13,14,15,16,17,18,19,20},
	{1,2,3,4,5,6,7,8,9,10,11,12,13,14,15,16,17,18,19,20},
	{1,2,3,4,5,6,7,8,9,10,11,12,13,14,15,16,17,18,19,20},
	{1,2,3,4,5,6,7,8,9,10,11,12,13,14,15,16,17,18,19,20},
	{1,2,3,4,5,6,7,8,9,11,12,13,15,16,17,18,20},
	{1,2,3,4,6,7,8,9,10,11,12,13,14,15,16,17,18,19,20},
	{1,2,3,4,5,6,7,8,9,10,11,12,13,14,15,16,17,18,19,20},
	{1,2,3,4,5,6,7,8,9,10,11,12,13,14,15,16,17,18,19,20},
	{1,2,3,4,5,6,7,8,9,10,11,12,13,14,15,16,17,18,19,20},
	{}];

POTENTIAL_ACT = [{2,3,4,5,6,7,8,9,10,11,12,13,14,15,16,17,18,19,20,21},
	{2,3,4,5,6,7,8,9,10,11,12,13,14,15,16,17,18,19,20,21},
	{2,3,4,5,6,7,8,9,10,11,12,13,14,15,16,17,18,19,20,21},
	{2,3,4,5,6,7,8,9,10,11,12,13,14,15,16,17,18,19,20,21},
	{2,3,4,8,9,12,13,14,15,16,17,19,20,21},
	{2,3,4,5,6,7,8,9,10,11,12,13,14,15,16,17,18,19,20,21},
	{2,3,4,5,6,7,8,9,10,11,12,13,14,15,16,17,18,19,20,21},
	{2,3,4,5,6,7,8,9,10,11,12,13,14,15,16,17,18,19,20,21},
	{2,3,4,5,6,7,8,9,10,11,12,13,14,15,16,17,18,19,20,21},
	{2,3,4,5,6,7,9,10,11,12,13,14,15,16,18,19,20,21},
	{2,3,4,5,6,7,8,9,10,11,12,13,14,15,16,17,18,19,20,21},
	{2,3,4,5,6,7,8,9,10,11,12,13,14,15,16,17,18,19,20,21},
	{2,3,4,5,6,7,8,9,10,11,12,13,14,15,16,17,18,19,20,21},
	{2,3,4,5,6,7,9,10,11,12,13,14,15,16,18,19,20,21},
	{2,3,4,5,6,7,8,9,10,11,12,13,14,15,16,17,18,19,20,21},
	{2,3,4,5,6,7,8,9,10,11,12,13,14,15,16,17,18,19,20,21},
	{2,3,4,5,6,7,8,9,10,11,12,13,14,15,16,17,18,19,20,21},
	{2,3,4,5,6,7,8,9,10,11,12,13,14,15,16,17,18,19,20,21},
	{2,3,4,5,6,7,9,10,11,12,13,14,15,16,18,19,20,21},
	{2,3,4,5,6,7,8,9,10,11,12,13,14,15,16,17,18,19,20,21}];
